
































































































40 52 6 0 
76 1 49 50 
3 23 60 64 11 
66 57 44 25 
26 33 67 68 
30 35 32 27 
36 14 55 12 20 
8 48 39 59 51 
75 24 31 47 28 
56 61 42 37 

53 63 9 15 
72 45 16 17 29 
70 69 21 62 
58 22 41 38 71 
54 19 4 65 43 
18 5 73 34 7 
2 46 10 74 13 
